param Riesgos:=
0[1]	2		5	
1[1]	2		4	
2[1]
3[1]
4[1]	5	
5[1]	1		4		6	
6[1]	2		3		6	
7[1]	4	
8[1]	2		6	
9[1]	2		4		5	
10[1]	3	
11[1]	2		5	
12[1]	2		4	
13[1]
14[1]	4		5	
0[2]
1[2]	1		6	
2[2]	1		5	
3[2]	1		3		5	
0[3]	1		4		5	
1[3]	1		2		3	
2[3]	1		5		6	
3[3]	5	
4[3]	4		6	
5[3]	1		2		3	
6[3]
7[3]	1		6	
8[3]	3		6	
9[3]	5	
10[3]	3	
